3 3 2
20 2 78 1 59 2 60 0 36 1 6 2 11 1 11 0 65 2 1 0 2 2 85 1 58 0 2 2 54 1 53 0 88 2 37 1 4 2 25 1 35 
20 0 93 2 65 1 5 0 28 2 13 1 27 0 63 1 73 2 54 1 35 0 24 1 92 0 65 2 43 0 17 2 1 1 36 0 81 2 42 0 85 
20 2 54 0 16 2 3 0 40 2 78 1 51 0 58 1 54 2 36 1 15 0 25 2 26 0 35 1 84 0 56 1 53 0 0 2 88 1 25 2 83 

-------------
